Read MPS format model from file dat/rmp/DER_96_8192_10.mps
Reading time = 0.58 seconds
: 8288 rows, 18720 columns, 1597596 nonzeros
Gurobi Optimizer version 9.0.0 build v9.0.0rc2 (linux64)
Optimize a model with 8288 rows, 18720 columns and 1597596 nonzeros
Model fingerprint: 0xd21ad51c
Coefficient statistics:
  Matrix range     [1e-04, 1e+01]
  Objective range  [8e-01, 1e+03]
  Bounds range     [5e+04, 5e+04]
  RHS range        [1e+00, 1e+00]
Ordering time: 0.02s

Barrier statistics:
 AA' NZ     : 7.297e+05
 Factor NZ  : 8.172e+05 (roughly 18 MBytes of memory)
 Factor Ops : 8.488e+07 (less than 1 second per iteration)
 Threads    : 1

                  Objective                Residual
Iter       Primal          Dual         Primal    Dual     Compl     Time
   0   3.52891347e+09 -4.71225024e+08  1.71e+07 2.85e-02  1.88e+06     0s
   1   9.49107684e+07 -8.23442102e+07  4.02e+05 3.64e-12  4.85e+04     1s
   2   7.37166204e+06 -1.94899950e+07  2.94e+04 3.64e-12  4.30e+03     1s
   3   5.03993590e+05 -1.18911068e+07  1.74e+03 1.88e-11  8.00e+02     1s
   4   5.94516810e+04 -1.80710921e+06  2.30e-10 2.73e-12  9.92e+01     1s
   5   5.73362271e+04 -9.13475573e+03  9.22e-11 3.64e-12  3.53e+00     1s
   6   5.72927178e+04  5.16124839e+04  7.59e-11 7.28e-12  3.02e-01     1s
   7   5.68429241e+04  5.54161101e+04  1.74e-10 3.64e-12  7.58e-02     1s
   8   5.65405071e+04  5.59275117e+04  5.20e-10 3.64e-12  3.26e-02     2s
   9   5.64295186e+04  5.60534151e+04  8.63e-10 3.64e-12  2.00e-02     2s
  10   5.63352358e+04  5.61734712e+04  1.85e-09 1.82e-12  8.60e-03     2s
  11   5.63132660e+04  5.62258614e+04  1.15e-09 1.82e-12  4.65e-03     2s
  12   5.63002615e+04  5.62441527e+04  2.13e-09 1.82e-12  2.98e-03     2s
  13   5.62821274e+04  5.62581988e+04  3.45e-09 3.64e-12  1.27e-03     2s
  14   5.62770431e+04  5.62625185e+04  2.79e-09 1.82e-12  7.72e-04     2s
  15   5.62743878e+04  5.62665277e+04  2.85e-09 1.82e-12  4.18e-04     3s
  16   5.62729326e+04  5.62676239e+04  2.10e-09 1.82e-12  2.82e-04     3s
  17   5.62711803e+04  5.62685764e+04  3.32e-09 1.82e-12  1.38e-04     3s
  18   5.62705752e+04  5.62687621e+04  3.78e-09 1.82e-12  9.64e-05     3s
  19   5.62697434e+04  5.62689604e+04  8.08e-09 1.82e-12  4.16e-05     3s
  20   5.62694775e+04  5.62690370e+04  6.48e-09 1.82e-12  2.34e-05     3s
  21   5.62693360e+04  5.62690960e+04  3.44e-09 1.82e-12  1.28e-05     3s
  22   5.62692654e+04  5.62691015e+04  1.24e-08 1.82e-12  8.71e-06     3s
  23   5.62691922e+04  5.62691122e+04  5.14e-08 2.73e-12  4.26e-06     4s
  24   5.62691781e+04  5.62691137e+04  1.08e-07 1.82e-12  3.42e-06     4s
  25   5.62691195e+04  5.62691136e+04  1.08e-06 1.82e-12  3.12e-07     4s
  26   5.62691149e+04  5.62691146e+04  2.48e-07 2.73e-12  1.34e-08     4s
  27   5.62691147e+04  5.62691147e+04  1.27e-08 3.64e-12  3.66e-10     4s

Barrier solved model in 27 iterations and 4.29 seconds
Optimal objective 5.62691147e+04

Solve time: 4.290296794
Barrier iterations: 27
